Minimize
z0 + z1 + z2 + z3 + z4 + z5 + z6 + z7


Subject To
z4 + z5 >= 1
z5 + z6 >= 1
z4 + z5 + z6 >= 1
z2 + z5 >= 1
z5 >= 1
z2 + z5 + z6 >= 1
z5 >= 1
z7 >= 1
z4 + z7 >= 1
z4 + z5 >= 1
z2 + z7 >= 1
z2 + z5 >= 1
z5 >= 1
z3 + z7 >= 1
z3 + z4 + z7 >= 1
z3 + z6 >= 1
z3 + z4 + z6 >= 1
z2 + z3 + z7 >= 1
z2 + z3 + z6 >= 1
z7 >= 1
z4 + z7 >= 1
z4 >= 1
z2 + z7 >= 1
z7 >= 1
z2 >= 1
z1 >= 1
z1 + z6 >= 1
z0 >= 1
z0 + z5 >= 1
z1 >= 1
z1 >= 1
z0 >= 1
z0 >= 1
z1 + z3 >= 1
z1 + z3 + z6 >= 1
z0 >= 1
z0 >= 1
z1 + z7 >= 1
z1 >= 1
z0 >= 1
z0 >= 1


Binary
z0
z1
z2
z3
z4
z5
z6
z7